p tdp 81 80
18 16
67 53
28 30
19 6
51 3
9 53
65 49
25 3
15 35
21 70
46 35
12 26
20 26
28 1
43 9
67 44
39 55
45 38
14 75
56 21
72 63
64 17
15 41
68 70
7 52
13 76
24 79
69 38
65 59
62 50
58 60
8 48
62 65
75 61
29 78
5 60
32 5
35 25
34 74
63 60
29 10
38 71
2 33
12 73
52 22
77 81
54 27
37 28
11 37
80 23
36 57
25 23
62 45
29 73
37 31
51 4
40 66
34 16
27 53
75 13
60 39
65 7
66 58
38 48
33 24
8 46
6 14
17 21
36 19
17 47
77 32
27 2
30 42
16 6
11 56
38 61
14 55
64 5
16 43
80 78
